certificates/rado_a15_c206_N38.drat
-34 -36 -38 0
-36 -37 -38 0
-37 -38 0
d -36 -37 -38 0
14 -38 0
-38 0
12 0
-14 15 0
8 15 0
d 8 27 15 0
15 0
-34 0
-31 0
14 0
-10 0
-11 0
-18 0
-8 0
-16 0
-33 0
-19 0
13 0
4 0
-2 0
-24 0
-1 0
-23 0
-32 0
-26 0
0
